5 5
3 75 2 95 4 91 0 42 1 48
0 27 4 72 2 33 3 76 1 35
4 98 0 16 3 36 1 66 2 76
4 91 0 56 2 17 3 20 1 85
3 94 4 84 1 8 0 18 2 18
-1
0 3 5
0 1 3 5
0 2 5
0 2 3 5
0 4 5
-2
401 536
29 149 258
144 449
179 190 279
269 258

486 5
5 16 11 3 23
19 13 4 22 9
17 1 7 14 24
0 20 18 12 8
15 10 6 2 21
